objective value:                                11627
t_x_0                                               1 	(obj:30)
t_x_1                                               1 	(obj:25)
t_x_2                                               1 	(obj:0)
t_x_5                                               1 	(obj:2)
t_x_7                                               1 	(obj:5)
t_x_10                                              1 	(obj:20)
t_x_15                                              1 	(obj:10)
t_x_18                                              1 	(obj:17)
t_x_23                                              1 	(obj:29)
t_x_33                                              1 	(obj:16)
t_x_34                                              1 	(obj:57)
t_x_36                                              1 	(obj:13)
t_x_46                                              1 	(obj:2)
t_x_49                                              1 	(obj:17)
t_x_53                                              1 	(obj:4)
t_x_56                                              1 	(obj:73)
t_x_57                                              1 	(obj:9)
t_x_59                                              1 	(obj:23)
t_x_61                                              1 	(obj:48)
t_x_76                                              1 	(obj:27)
t_x_81                                              1 	(obj:42)
t_x_83                                              1 	(obj:10)
t_x_85                                              1 	(obj:24)
t_x_88                                              1 	(obj:38)
t_x_89                                              1 	(obj:54)
t_x_90                                              1 	(obj:22)
t_x_95                                              1 	(obj:12)
t_x_97                                              1 	(obj:24)
t_x_100                                             1 	(obj:14)
t_x_104                                             1 	(obj:4)
t_x_105                                             1 	(obj:18)
t_x_106                                             1 	(obj:52)
t_x_108                                             1 	(obj:13)
t_x_109                                             1 	(obj:14)
t_x_110                                             1 	(obj:16)
t_x_113                                             1 	(obj:6)
t_x_114                                             1 	(obj:7)
t_x_127                                             1 	(obj:26)
t_x_128                                             1 	(obj:16)
t_x_146                                             1 	(obj:21)
t_x_147                                             1 	(obj:4)
t_x_149                                             1 	(obj:9)
t_x_154                                             1 	(obj:38)
t_x_159                                             1 	(obj:48)
t_x_160                                             1 	(obj:10)
t_x_164                                             1 	(obj:24)
t_x_165                                             1 	(obj:5)
t_x_166                                             1 	(obj:51)
t_x_168                                             1 	(obj:10)
t_x_171                                             1 	(obj:36)
t_x_172                                             1 	(obj:44)
t_x_173                                             1 	(obj:6)
t_x_174                                             1 	(obj:5)
t_x_177                                             1 	(obj:17)
t_x_178                                             1 	(obj:10)
t_x_184                                             1 	(obj:24)
t_x_185                                             1 	(obj:3)
t_x_192                                             1 	(obj:0)
t_x_198                                             1 	(obj:5)
t_x_199                                             1 	(obj:27)
t_x_201                                             1 	(obj:22)
t_x_206                                             1 	(obj:21)
t_x_208                                             1 	(obj:40)
t_x_209                                             1 	(obj:10)
t_x_212                                             1 	(obj:7)
t_x_213                                             1 	(obj:1)
t_x_214                                             1 	(obj:32)
t_x_215                                             1 	(obj:15)
t_x_217                                             1 	(obj:27)
t_x_221                                             1 	(obj:9)
t_x_223                                             1 	(obj:19)
t_x_233                                             1 	(obj:63)
t_x_235                                             1 	(obj:37)
t_x_237                                             1 	(obj:48)
t_x_238                                             1 	(obj:38)
t_x_247                                             1 	(obj:24)
t_x_248                                             1 	(obj:23)
t_x_251                                             1 	(obj:17)
t_x_254                                             1 	(obj:39)
t_x_257                                             1 	(obj:44)
t_x_259                                             1 	(obj:27)
t_x_263                                             1 	(obj:24)
t_x_272                                             1 	(obj:13)
t_x_274                                             1 	(obj:15)
t_x_277                                             1 	(obj:17)
t_x_282                                             1 	(obj:23)
t_x_291                                             1 	(obj:50)
t_x_301                                             1 	(obj:1)
t_x_303                                             1 	(obj:13)
t_x_312                                             1 	(obj:19)
t_x_315                                             1 	(obj:12)
t_x_316                                             1 	(obj:27)
t_x_319                                             1 	(obj:29)
t_x_327                                             1 	(obj:28)
t_x_334                                             1 	(obj:4)
t_x_335                                             1 	(obj:7)
t_x_337                                             1 	(obj:6)
t_x_350                                             1 	(obj:30)
t_x_353                                             1 	(obj:33)
t_x_355                                             1 	(obj:9)
t_x_357                                             1 	(obj:15)
t_x_361                                             1 	(obj:7)
t_x_367                                             1 	(obj:8)
t_x_372                                             1 	(obj:6)
t_x_378                                             1 	(obj:23)
t_x_380                                             1 	(obj:27)
t_x_384                                             1 	(obj:26)
t_x_386                                             1 	(obj:19)
t_x_396                                             1 	(obj:54)
t_x_400                                             1 	(obj:2)
t_x_411                                             1 	(obj:2)
t_x_414                                             1 	(obj:48)
t_x_417                                             1 	(obj:6)
t_x_423                                             1 	(obj:19)
t_x_425                                             1 	(obj:46)
t_x_427                                             1 	(obj:45)
t_x_429                                             1 	(obj:1)
t_x_432                                             1 	(obj:31)
t_x_435                                             1 	(obj:12)
t_x_437                                             1 	(obj:2)
t_x_440                                             1 	(obj:67)
t_x_441                                             1 	(obj:5)
t_x_442                                             1 	(obj:11)
t_x_443                                             1 	(obj:45)
t_x_446                                             1 	(obj:24)
t_x_448                                             1 	(obj:56)
t_x_452                                             1 	(obj:30)
t_x_453                                             1 	(obj:28)
t_x_455                                             1 	(obj:15)
t_x_456                                             1 	(obj:41)
t_x_457                                             1 	(obj:48)
t_x_461                                             1 	(obj:87)
t_x_462                                             1 	(obj:45)
t_x_465                                             1 	(obj:10)
t_x_467                                             1 	(obj:23)
t_x_470                                             1 	(obj:7)
t_x_479                                             1 	(obj:45)
t_x_484                                             1 	(obj:20)
t_x_486                                             1 	(obj:24)
t_x_491                                             1 	(obj:1)
t_x_498                                             1 	(obj:0)
t_x_502                                             1 	(obj:30)
t_x_503                                             1 	(obj:21)
t_x_505                                             1 	(obj:5)
t_x_506                                             1 	(obj:4)
t_x_509                                             1 	(obj:9)
t_x_512                                             1 	(obj:15)
t_x_513                                             1 	(obj:8)
t_x_516                                             1 	(obj:1)
t_x_518                                             1 	(obj:18)
t_x_524                                             1 	(obj:0)
t_x_525                                             1 	(obj:39)
t_x_526                                             1 	(obj:2)
t_x_529                                             1 	(obj:20)
t_x_532                                             1 	(obj:42)
t_x_536                                             1 	(obj:12)
t_x_537                                             1 	(obj:10)
t_x_540                                             1 	(obj:1)
t_x_541                                             1 	(obj:5)
t_x_543                                             1 	(obj:11)
t_x_545                                             1 	(obj:64)
t_x_548                                             1 	(obj:13)
t_x_549                                             1 	(obj:10)
t_x_555                                             1 	(obj:7)
t_x_557                                             1 	(obj:97)
t_x_564                                             1 	(obj:0)
t_x_568                                             1 	(obj:57)
t_x_569                                             1 	(obj:36)
t_x_571                                             1 	(obj:7)
t_x_572                                             1 	(obj:14)
t_x_573                                             1 	(obj:8)
t_x_582                                             1 	(obj:67)
t_x_589                                             1 	(obj:25)
t_x_594                                             1 	(obj:10)
t_x_595                                             1 	(obj:6)
t_x_596                                             1 	(obj:7)
t_x_598                                             1 	(obj:4)
t_x_600                                             1 	(obj:19)
t_x_602                                             1 	(obj:5)
t_x_604                                             1 	(obj:13)
t_x_610                                             1 	(obj:11)
t_x_615                                             1 	(obj:3)
t_x_624                                             1 	(obj:12)
t_x_625                                             1 	(obj:23)
t_x_627                                             1 	(obj:39)
t_x_629                                             1 	(obj:16)
t_x_631                                             1 	(obj:10)
t_x_634                                             1 	(obj:26)
t_x_637                                             1 	(obj:23)
t_x_639                                             1 	(obj:15)
t_x_643                                             1 	(obj:7)
t_x_649                                             1 	(obj:16)
t_x_650                                             1 	(obj:45)
t_x_654                                             1 	(obj:2)
t_x_655                                             1 	(obj:27)
t_x_656                                             1 	(obj:20)
t_x_657                                             1 	(obj:19)
t_x_662                                             1 	(obj:12)
t_x_664                                             1 	(obj:9)
t_x_665                                             1 	(obj:11)
t_x_671                                             1 	(obj:1)
t_x_673                                             1 	(obj:3)
t_x_677                                             1 	(obj:17)
t_x_679                                             1 	(obj:12)
t_x_682                                             1 	(obj:31)
t_x_683                                             1 	(obj:1)
t_x_687                                             1 	(obj:18)
t_x_690                                             1 	(obj:0)
t_x_693                                             1 	(obj:1)
t_x_694                                             1 	(obj:21)
t_x_695                                             1 	(obj:36)
t_x_697                                             1 	(obj:3)
t_x_701                                             1 	(obj:15)
t_x_702                                             1 	(obj:24)
t_x_706                                             1 	(obj:21)
t_x_710                                             1 	(obj:0)
t_x_712                                             1 	(obj:3)
t_x_715                                             1 	(obj:26)
t_x_722                                             1 	(obj:16)
t_x_724                                             1 	(obj:5)
t_x_728                                             1 	(obj:29)
t_x_732                                             1 	(obj:10)
t_x_741                                             1 	(obj:10)
t_x_744                                             1 	(obj:15)
t_x_748                                             1 	(obj:22)
t_x_756                                             1 	(obj:50)
t_x_757                                             1 	(obj:1)
t_x_760                                             1 	(obj:20)
t_x_761                                             1 	(obj:1)
t_x_765                                             1 	(obj:3)
t_x_767                                             1 	(obj:16)
t_x_770                                             1 	(obj:41)
t_x_772                                             1 	(obj:8)
t_x_773                                             1 	(obj:3)
t_x_776                                             1 	(obj:2)
t_x_777                                             1 	(obj:30)
t_x_779                                             1 	(obj:5)
t_x_790                                             1 	(obj:14)
t_x_797                                             1 	(obj:42)
t_x_799                                             1 	(obj:25)
t_x_801                                             1 	(obj:1)
t_x_807                                             1 	(obj:8)
t_x_809                                             1 	(obj:0)
t_x_814                                             1 	(obj:2)
t_x_818                                             1 	(obj:13)
t_x_820                                             1 	(obj:31)
t_x_828                                             1 	(obj:0)
t_x_829                                             1 	(obj:10)
t_x_839                                             1 	(obj:1)
t_x_840                                             1 	(obj:9)
t_x_853                                             1 	(obj:0)
t_x_854                                             1 	(obj:44)
t_x_861                                             1 	(obj:25)
t_x_872                                             1 	(obj:19)
t_x_875                                             1 	(obj:35)
t_x_879                                             1 	(obj:30)
t_x_883                                             1 	(obj:32)
t_x_888                                             1 	(obj:8)
t_x_896                                             1 	(obj:33)
t_x_901                                             1 	(obj:6)
t_x_902                                             1 	(obj:43)
t_x_905                                             1 	(obj:20)
t_x_907                                             1 	(obj:39)
t_x_908                                             1 	(obj:20)
t_x_915                                             1 	(obj:15)
t_x_917                                             1 	(obj:10)
t_x_919                                             1 	(obj:24)
t_x_922                                             1 	(obj:44)
t_x_923                                             1 	(obj:3)
t_x_924                                             1 	(obj:22)
t_x_925                                             1 	(obj:1)
t_x_927                                             1 	(obj:58)
t_x_929                                             1 	(obj:27)
t_x_931                                             1 	(obj:0)
t_x_933                                             1 	(obj:11)
t_x_944                                             1 	(obj:17)
t_x_945                                             1 	(obj:5)
t_x_947                                             1 	(obj:16)
t_x_950                                             1 	(obj:21)
t_x_960                                             1 	(obj:9)
t_x_962                                             1 	(obj:16)
t_x_965                                             1 	(obj:8)
t_x_970                                             1 	(obj:28)
t_x_976                                             1 	(obj:17)
t_x_978                                             1 	(obj:19)
t_x_994                                             1 	(obj:24)
t_x_995                                             1 	(obj:2)
t_x_997                                             1 	(obj:3)
t_x_1003                                            1 	(obj:11)
t_x_1004                                            1 	(obj:8)
t_x_1014                                            1 	(obj:1)
t_x_1015                                            1 	(obj:16)
t_x_1020                                            1 	(obj:28)
t_x_1025                                            1 	(obj:4)
t_x_1026                                            1 	(obj:54)
t_x_1027                                            1 	(obj:25)
t_x_1029                                            1 	(obj:3)
t_x_1031                                            1 	(obj:5)
t_x_1040                                            1 	(obj:20)
t_x_1041                                            1 	(obj:0)
t_x_1043                                            1 	(obj:26)
t_x_1048                                            1 	(obj:8)
t_x_1050                                            1 	(obj:0)
t_x_1057                                            1 	(obj:23)
t_x_1061                                            1 	(obj:46)
t_x_1063                                            1 	(obj:8)
t_x_1066                                            1 	(obj:23)
t_x_1073                                            1 	(obj:19)
t_x_1074                                            1 	(obj:24)
t_x_1076                                            1 	(obj:29)
t_x_1081                                            1 	(obj:29)
t_x_1087                                            1 	(obj:42)
t_x_1090                                            1 	(obj:41)
t_x_1093                                            1 	(obj:17)
t_x_1094                                            1 	(obj:44)
t_x_1096                                            1 	(obj:0)
t_x_1105                                            1 	(obj:5)
t_x_1108                                            1 	(obj:20)
t_x_1112                                            1 	(obj:7)
t_x_1114                                            1 	(obj:22)
t_x_1116                                            1 	(obj:2)
t_x_1117                                            1 	(obj:23)
t_x_1123                                            1 	(obj:10)
t_x_1124                                            1 	(obj:34)
t_x_1127                                            1 	(obj:6)
t_x_1136                                            1 	(obj:0)
t_x_1137                                            1 	(obj:20)
t_x_1140                                            1 	(obj:20)
t_x_1141                                            1 	(obj:11)
t_x_1145                                            1 	(obj:8)
t_x_1147                                            1 	(obj:3)
t_x_1151                                            1 	(obj:21)
t_x_1154                                            1 	(obj:25)
t_x_1155                                            1 	(obj:0)
t_x_1159                                            1 	(obj:76)
t_x_1160                                            1 	(obj:3)
t_x_1162                                            1 	(obj:30)
t_x_1164                                            1 	(obj:12)
t_x_1170                                            1 	(obj:39)
t_x_1171                                            1 	(obj:32)
t_x_1173                                            1 	(obj:5)
t_x_1177                                            1 	(obj:14)
t_x_1183                                            1 	(obj:64)
t_x_1186                                            1 	(obj:26)
t_x_1191                                            1 	(obj:12)
t_x_1192                                            1 	(obj:37)
t_x_1196                                            1 	(obj:7)
t_x_1198                                            1 	(obj:3)
t_x_1200                                            1 	(obj:5)
t_x_1201                                            1 	(obj:2)
t_x_1204                                            1 	(obj:2)
t_x_1209                                            1 	(obj:10)
t_x_1211                                            1 	(obj:46)
t_x_1212                                            1 	(obj:21)
t_x_1213                                            1 	(obj:13)
t_x_1215                                            1 	(obj:7)
t_x_1217                                            1 	(obj:3)
t_x_1218                                            1 	(obj:0)
t_x_1220                                            1 	(obj:40)
t_x_1223                                            1 	(obj:32)
t_x_1229                                            1 	(obj:13)
t_x_1232                                            1 	(obj:33)
t_x_1240                                            1 	(obj:24)
t_x_1242                                            1 	(obj:1)
t_x_1245                                            1 	(obj:31)
t_x_1246                                            1 	(obj:3)
t_x_1249                                            1 	(obj:2)
t_x_1252                                            1 	(obj:27)
t_x_1257                                            1 	(obj:16)
t_x_1259                                            1 	(obj:23)
t_x_1261                                            1 	(obj:14)
t_x_1263                                            1 	(obj:8)
t_x_1264                                            1 	(obj:34)
t_x_1268                                            1 	(obj:5)
t_x_1270                                            1 	(obj:41)
t_x_1274                                            1 	(obj:42)
t_x_1279                                            1 	(obj:51)
t_x_1283                                            1 	(obj:43)
t_x_1285                                            1 	(obj:4)
t_x_1286                                            1 	(obj:6)
t_x_1292                                            1 	(obj:56)
t_x_1294                                            1 	(obj:12)
t_x_1297                                            1 	(obj:5)
t_x_1298                                            1 	(obj:1)
t_x_1299                                            1 	(obj:0)
t_x_1300                                            1 	(obj:7)
t_x_1306                                            1 	(obj:2)
t_x_1308                                            1 	(obj:7)
t_x_1314                                            1 	(obj:8)
t_x_1330                                            1 	(obj:32)
t_x_1331                                            1 	(obj:11)
t_x_1334                                            1 	(obj:36)
t_x_1336                                            1 	(obj:1)
t_x_1345                                            1 	(obj:23)
t_x_1348                                            1 	(obj:8)
t_x_1352                                            1 	(obj:1)
t_x_1353                                            1 	(obj:23)
t_x_1354                                            1 	(obj:33)
t_x_1357                                            1 	(obj:9)
t_x_1358                                            1 	(obj:2)
t_x_1359                                            1 	(obj:34)
t_x_1363                                            1 	(obj:0)
t_x_1364                                            1 	(obj:5)
t_x_1366                                            1 	(obj:6)
t_x_1367                                            1 	(obj:19)
t_x_1373                                            1 	(obj:8)
t_x_1375                                            1 	(obj:9)
t_x_1380                                            1 	(obj:14)
t_x_1382                                            1 	(obj:19)
t_x_1384                                            1 	(obj:21)
t_x_1386                                            1 	(obj:20)
t_x_1387                                            1 	(obj:3)
t_x_1393                                            1 	(obj:8)
t_x_1394                                            1 	(obj:33)
t_x_1398                                            1 	(obj:21)
t_x_1402                                            1 	(obj:14)
t_x_1407                                            1 	(obj:16)
t_x_1409                                            1 	(obj:4)
t_x_1412                                            1 	(obj:16)
t_x_1418                                            1 	(obj:17)
t_x_1419                                            1 	(obj:4)
t_x_1427                                            1 	(obj:3)
t_x_1428                                            1 	(obj:61)
t_x_1430                                            1 	(obj:41)
t_x_1438                                            1 	(obj:10)
t_x_1439                                            1 	(obj:23)
t_x_1442                                            1 	(obj:40)
t_x_1444                                            1 	(obj:40)
t_x_1465                                            1 	(obj:29)
t_x_1468                                            1 	(obj:33)
t_x_1469                                            1 	(obj:60)
t_x_1470                                            1 	(obj:26)
t_x_1475                                            1 	(obj:11)
t_x_1478                                            1 	(obj:8)
t_x_1480                                            1 	(obj:1)
t_x_1481                                            1 	(obj:16)
t_x_1484                                            1 	(obj:4)
t_x_1485                                            1 	(obj:23)
t_x_1487                                            1 	(obj:51)
t_x_1489                                            1 	(obj:5)
t_x_1494                                            1 	(obj:28)
t_x_1496                                            1 	(obj:2)
t_x_1497                                            1 	(obj:45)
t_x_1503                                            1 	(obj:2)
t_x_1505                                            1 	(obj:13)
t_x_1506                                            1 	(obj:37)
t_x_1507                                            1 	(obj:22)
t_x_1508                                            1 	(obj:10)
t_x_1509                                            1 	(obj:2)
t_x_1517                                            1 	(obj:13)
t_x_1518                                            1 	(obj:33)
t_x_1524                                            1 	(obj:7)
t_x_1525                                            1 	(obj:22)
t_x_1526                                            1 	(obj:6)
t_x_1531                                            1 	(obj:2)
t_x_1533                                            1 	(obj:4)
t_x_1536                                            1 	(obj:9)
t_x_1545                                            1 	(obj:25)
t_x_1549                                            1 	(obj:35)
t_x_1550                                            1 	(obj:15)
t_x_1556                                            1 	(obj:18)
t_x_1557                                            1 	(obj:53)
t_x_1558                                            1 	(obj:32)
t_x_1560                                            1 	(obj:22)
t_x_1564                                            1 	(obj:38)
t_x_1568                                            1 	(obj:7)
t_x_1570                                            1 	(obj:32)
t_x_1571                                            1 	(obj:14)
t_x_1575                                            1 	(obj:5)
t_x_1585                                            1 	(obj:17)
t_x_1587                                            1 	(obj:30)
t_x_1592                                            1 	(obj:35)
t_x_1596                                            1 	(obj:34)
t_x_1598                                            1 	(obj:6)
t_x_1604                                            1 	(obj:57)
t_x_1607                                            1 	(obj:33)
t_x_1608                                            1 	(obj:44)
t_x_1612                                            1 	(obj:32)
t_x_1613                                            1 	(obj:16)
t_x_1614                                            1 	(obj:21)
t_x_1618                                            1 	(obj:5)
t_x_1626                                            1 	(obj:16)
t_x_1627                                            1 	(obj:15)
t_x_1629                                            1 	(obj:5)
t_x_1630                                            1 	(obj:19)
t_x_1633                                            1 	(obj:2)
t_x_1634                                            1 	(obj:8)
t_x_1640                                            1 	(obj:65)
t_x_1641                                            1 	(obj:25)
t_x_1642                                            1 	(obj:5)
t_x_1651                                            1 	(obj:4)
t_x_1652                                            1 	(obj:27)
t_x_1653                                            1 	(obj:14)
t_x_1663                                            1 	(obj:11)
t_x_1664                                            1 	(obj:9)
t_x_1669                                            1 	(obj:32)
t_x_1670                                            1 	(obj:16)
t_x_1671                                            1 	(obj:26)
t_x_1674                                            1 	(obj:0)
t_x_1675                                            1 	(obj:31)
t_x_1681                                            1 	(obj:32)
t_x_1682                                            1 	(obj:10)
t_x_1683                                            1 	(obj:20)
t_x_1684                                            1 	(obj:7)
t_x_1687                                            1 	(obj:16)
t_x_1698                                            1 	(obj:50)
t_x_1699                                            1 	(obj:12)
t_x_1700                                            1 	(obj:6)
t_x_1710                                            1 	(obj:12)
t_x_1711                                            1 	(obj:7)
t_x_1713                                            1 	(obj:7)
t_x_1714                                            1 	(obj:12)
t_x_1715                                            1 	(obj:7)
t_x_1716                                            1 	(obj:30)
t_x_1717                                            1 	(obj:9)
t_x_1720                                            1 	(obj:24)
t_x_1721                                            1 	(obj:12)
t_x_1722                                            1 	(obj:11)
t_x_1724                                            1 	(obj:13)
t_x_1728                                            1 	(obj:17)
t_x_1730                                            1 	(obj:21)
t_x_1731                                            1 	(obj:41)
t_x_1733                                            1 	(obj:53)
t_x_1734                                            1 	(obj:17)
t_x_1741                                            1 	(obj:0)
t_x_1743                                            1 	(obj:43)
t_x_1748                                            1 	(obj:16)
t_x_1749                                            1 	(obj:8)
t_x_1750                                            1 	(obj:17)
t_x_1754                                            1 	(obj:8)
t_x_1761                                            1 	(obj:43)
t_x_1766                                            1 	(obj:3)
t_x_1767                                            1 	(obj:7)
t_x_1769                                            1 	(obj:31)
t_x_1770                                            1 	(obj:21)
t_x_1775                                            1 	(obj:28)
t_x_1777                                            1 	(obj:58)
t_x_1782                                            1 	(obj:2)
t_x_1786                                            1 	(obj:27)
t_x_1789                                            1 	(obj:31)
t_x_1791                                            1 	(obj:28)
t_x_1794                                            1 	(obj:25)
t_x_1795                                            1 	(obj:27)
t_x_1796                                            1 	(obj:31)
t_x_1800                                            1 	(obj:12)
t_x_1801                                            1 	(obj:12)
t_x_1805                                            1 	(obj:11)
t_x_1808                                            1 	(obj:47)
t_x_1810                                            1 	(obj:14)
t_x_1812                                            1 	(obj:17)
t_x_1814                                            1 	(obj:28)
t_x_1815                                            1 	(obj:35)
t_x_1820                                            1 	(obj:28)
t_x_1821                                            1 	(obj:15)
t_x_1822                                            1 	(obj:18)
t_x_1824                                            1 	(obj:11)
t_x_1829                                            1 	(obj:4)
t_x_1843                                            1 	(obj:4)
t_x_1846                                            1 	(obj:22)
t_x_1847                                            1 	(obj:33)
t_x_1863                                            1 	(obj:42)
t_x_1864                                            1 	(obj:13)
t_x_1865                                            1 	(obj:19)
t_x_1866                                            1 	(obj:9)
t_x_1867                                            1 	(obj:2)
t_x_1868                                            1 	(obj:15)
t_x_1870                                            1 	(obj:15)
t_x_1871                                            1 	(obj:15)
t_x_1872                                            1 	(obj:39)
t_x_1873                                            1 	(obj:31)
t_x_1875                                            1 	(obj:36)
t_x_1876                                            1 	(obj:11)
t_x_1877                                            1 	(obj:18)
t_x_1878                                            1 	(obj:35)
t_x_1880                                            1 	(obj:7)
t_x_1882                                            1 	(obj:10)
t_x_1884                                            1 	(obj:13)
t_x_1887                                            1 	(obj:13)
t_x_1888                                            1 	(obj:12)
t_x_1899                                            1 	(obj:1)
t_x_1907                                            1 	(obj:46)
t_x_1908                                            1 	(obj:11)
t_x_1911                                            1 	(obj:14)
t_x_1913                                            1 	(obj:1)
t_x_1918                                            1 	(obj:8)
t_x_1921                                            1 	(obj:5)
t_x_1925                                            1 	(obj:5)
t_x_1936                                            1 	(obj:6)
t_x_1939                                            1 	(obj:8)
t_x_1941                                            1 	(obj:8)
t_x_1945                                            1 	(obj:27)
t_x_1958                                            1 	(obj:6)
t_x_1960                                            1 	(obj:7)
t_x_1970                                            1 	(obj:14)
t_x_1971                                            1 	(obj:7)
t_x_1975                                            1 	(obj:19)
t_x_1977                                            1 	(obj:17)
t_x_1980                                            1 	(obj:38)
t_x_1982                                            1 	(obj:21)
t_x_1985                                            1 	(obj:23)
t_x_1990                                            1 	(obj:11)
t_x_1996                                            1 	(obj:51)
